Version identifier: 22.1.0.0 | 2022-03-09 | 1a383f8ce
CPXPARAM_Threads                                 1
CPXPARAM_MIP_Strategy_VariableSelect             3
CPXPARAM_TimeLimit                               594.80102351699998
1 of 1 MIP starts provided solutions.
MIP start 'm1' defined initial solution with objective 283.0000.
Tried aggregator 1 time.
MIP Presolve eliminated 26 rows and 0 columns.
MIP Presolve modified 189 coefficients.
Reduced MIP has 2695 rows, 6300 columns, and 123429 nonzeros.
Reduced MIP has 6300 binaries, 0 generals, 0 SOSs, and 0 indicators.
Presolve time = 0.14 sec. (224.30 ticks)
Probing time = 0.02 sec. (23.75 ticks)
Tried aggregator 1 time.
Detecting symmetries...
MIP Presolve modified 11 coefficients.
Reduced MIP has 2695 rows, 6300 columns, and 123690 nonzeros.
Reduced MIP has 6300 binaries, 0 generals, 0 SOSs, and 0 indicators.
Presolve time = 0.11 sec. (166.81 ticks)
Probing time = 0.02 sec. (23.77 ticks)
Clique table members: 974.
MIP emphasis: balance optimality and feasibility.
MIP search method: dynamic search.
Parallel mode: none, using 1 thread.
Root relaxation solution time = 6.31 sec. (7528.70 ticks)

        Nodes                                         Cuts/
   Node  Left     Objective  IInf  Best Integer    Best Bound    ItCnt     Gap

*     0+    0                          283.0000    45150.0000              --- 
      0     0      300.0000  1366      283.0000      300.0000    14806    6.01%
Detecting symmetries...
      0     2      300.0000   162      283.0000      300.0000    14806    6.01%
Elapsed time = 30.55 sec. (32371.79 ticks, tree = 0.01 MB, solutions = 1)
      1     3      300.0000   594      283.0000      300.0000    34168    6.01%
      2     4      300.0000   341      283.0000      300.0000    39467    6.01%
      3     5      300.0000  1248      283.0000      300.0000    51805    6.01%
      4     6      300.0000   338      283.0000      300.0000    51813    6.01%
      5     7      300.0000   481      283.0000      300.0000    54843    6.01%
      6     8      300.0000   338      283.0000      300.0000    55711    6.01%
      7     9      300.0000   335      283.0000      300.0000    68773    6.01%
      8    10      300.0000   335      283.0000      300.0000    71527    6.01%
      9    11      300.0000   305      283.0000      300.0000    73820    6.01%
     10    12      300.0000   540      283.0000      300.0000    78532    6.01%
Elapsed time = 56.50 sec. (59256.00 ticks, tree = 0.13 MB, solutions = 1)
     13    15      300.0000   308      283.0000      300.0000    83142    6.01%
     16    18      300.0000   263      283.0000      300.0000    91363    6.01%
     18    20      300.0000   658      283.0000      300.0000   100161    6.01%
     21    23      300.0000   282      283.0000      300.0000   105889    6.01%
     23    25      300.0000   496      283.0000      300.0000   112816    6.01%
     25    27      300.0000   959      283.0000      300.0000   125262    6.01%
     27    29      300.0000   265      283.0000      300.0000   128290    6.01%
     30    32      300.0000   257      283.0000      300.0000   130316    6.01%
     33    35      300.0000   244      283.0000      300.0000   132759    6.01%
     35    37      300.0000   247      283.0000      300.0000   136692    6.01%
Elapsed time = 77.30 sec. (80131.33 ticks, tree = 0.66 MB, solutions = 1)
     38    40      300.0000   299      283.0000      300.0000   142396    6.01%
     42    44      300.0000   215      283.0000      300.0000   145631    6.01%
     46    48      300.0000   208      283.0000      300.0000   148157    6.01%
     50    52      300.0000   201      283.0000      300.0000   149262    6.01%
     54    56      300.0000   205      283.0000      300.0000   151795    6.01%
     57    59      300.0000   205      283.0000      300.0000   158175    6.01%
     60    62      300.0000   212      283.0000      300.0000   162951    6.01%
     63    65      300.0000   205      283.0000      300.0000   165650    6.01%
     67    69      300.0000   175      283.0000      300.0000   166995    6.01%
     68    70      300.0000   285      283.0000      300.0000   172098    6.01%
Elapsed time = 89.44 sec. (92188.85 ticks, tree = 1.41 MB, solutions = 1)
     70    72      300.0000   177      283.0000      300.0000   172809    6.01%
     74    76      300.0000   190      283.0000      300.0000   175476    6.01%
     78    80      300.0000   326      283.0000      300.0000   181757    6.01%
     80    82      300.0000   159      283.0000      300.0000   185609    6.01%
     82    84      300.0000   129      283.0000      300.0000   190509    6.01%
     85    87      300.0000   270      283.0000      300.0000   201682    6.01%
     88    90      300.0000   658      283.0000      300.0000   207827    6.01%
     91    93      300.0000   102      283.0000      300.0000   210221    6.01%
     94    96      300.0000    95      283.0000      300.0000   212641    6.01%
     96    98      300.0000    95      283.0000      300.0000   215841    6.01%
Elapsed time = 117.42 sec. (119801.26 ticks, tree = 2.06 MB, solutions = 1)
     98   100      300.0000   386      283.0000      300.0000   225453    6.01%
    100   102      300.0000   115      283.0000      300.0000   226203    6.01%
    101   103      300.0000   572      283.0000      300.0000   230558    6.01%
    104   106      300.0000   101      283.0000      300.0000   233198    6.01%
    105   107      300.0000   395      283.0000      300.0000   237983    6.01%
    107   109      300.0000    85      283.0000      300.0000   242561    6.01%
    108   110      300.0000   112      283.0000      300.0000   247163    6.01%
    109   111      300.0000   160      283.0000      300.0000   252340    6.01%
    111   113      300.0000   430      283.0000      300.0000   256812    6.01%
    114   116      300.0000    98      283.0000      300.0000   257189    6.01%
Elapsed time = 135.54 sec. (137866.30 ticks, tree = 2.47 MB, solutions = 1)
    117   119      300.0000    90      283.0000      300.0000   258123    6.01%
    119   121      300.0000    88      283.0000      300.0000   260483    6.01%
    123   125      300.0000    89      283.0000      300.0000   260860    6.01%
    126   128      300.0000   569      283.0000      300.0000   270568    6.01%
    128   130      300.0000   404      283.0000      300.0000   277868    6.01%
    130   132      300.0000   551      283.0000      300.0000   291555    6.01%
    133   135      300.0000   100      283.0000      300.0000   292567    6.01%
    135   137      300.0000   100      283.0000      300.0000   296670    6.01%
    138   140      300.0000   251      283.0000      300.0000   307129    6.01%
    140   142      300.0000   538      283.0000      300.0000   316815    6.01%
Elapsed time = 157.70 sec. (160071.02 ticks, tree = 3.01 MB, solutions = 1)
    142   144      300.0000   272      283.0000      300.0000   322101    6.01%
    144   146      300.0000   524      283.0000      300.0000   325707    6.01%
    146   148      300.0000   291      283.0000      300.0000   328156    6.01%
    147   149      300.0000   291      283.0000      300.0000   331789    6.01%
    148   150      300.0000   334      283.0000      300.0000   336814    6.01%
    151   153      300.0000   311      283.0000      300.0000   340020    6.01%
    154   156      300.0000   193      283.0000      300.0000   343438    6.01%
    156   158      300.0000   196      283.0000      300.0000   347279    6.01%
    160   162      300.0000   191      283.0000      300.0000   348205    6.01%
    163   165      300.0000   180      283.0000      300.0000   352388    6.01%
Elapsed time = 172.02 sec. (174281.00 ticks, tree = 3.54 MB, solutions = 1)
    167   169      300.0000   173      283.0000      300.0000   354474    6.01%
    170   172      300.0000   190      283.0000      300.0000   360404    6.01%
    174   176      300.0000    38      283.0000      300.0000   365961    6.01%
    179   181      300.0000    61      283.0000      300.0000   367913    6.01%
    181   183      300.0000    44      283.0000      300.0000   373003    6.01%
    185   187      300.0000   298      283.0000      300.0000   377647    6.01%
    187   189      300.0000   129      283.0000      300.0000   382526    6.01%
    189   191      300.0000   271      283.0000      300.0000   387263    6.01%
    191   193      300.0000    38      283.0000      300.0000   389846    6.01%
    194   196      300.0000    31      283.0000      300.0000   393280    6.01%
Elapsed time = 185.80 sec. (188272.76 ticks, tree = 4.26 MB, solutions = 1)
    195   197      300.0000    59      283.0000      300.0000   397113    6.01%
    197   199      300.0000    14      283.0000      300.0000   399647    6.01%
*   199     1      integral     0      300.0000      300.0000   400310    0.00%

Root node processing (before b&c):
  Real time             =   30.40 sec. (32218.27 ticks)
Sequential b&c:
  Real time             =  157.97 sec. (158753.59 ticks)
                          ------------
Total (root+branch&cut) =  188.37 sec. (190971.86 ticks)
Primal:	300
Dual:	300
Status:	Optimal
Time:	188.41
Sequence:
	1
	12
	0
	7
	11
	6
	12
	2
	19
	9
	14
	10
	19
	0
	13
	5
	1
	8
	2
	18
	1
	5
	2
	8
	19
	5
	6
	16
	19
	2
	5
	14
	0
	3
	8
	14
	18
	1
	0
	16
	5
	3
	6
	2
	0
	1
	18
	14
	8
	3
	15
	13
	6
	17
	13
	10
	9
	19
	12
	13
	15
	3
	9
	10
	4
	17
	14
	9
	10
	19
	0
	14
	13
	12
	19
	16
	5
	13
	17
	14
	9
	10
	19
	2
	6
	18
	11
	2
	15
	6
	11
	18
	16
	15
	1
	18
	7
	0
	1
	12
	4
	7
	17
	14
	15
	18
	11
	16
	6
	12
	3
	7
	8
	5
	12
	3
	7
	8
	5
	1
	0
	7
	8
	11
	6
	0
	14
	17
	7
	5
	8
	1
	2
	18
	5
	17
	14
	8
	18
	3
	15
	6
	16
	11
	18
	15
	14
	3
	8
	18
	10
	1
	4
	0
	7
	1
	12
	4
	7
	11
	12
	6
	16
	9
	3
	15
	6
	16
	11
	18
	15
	14
	17
	13
	4
	15
	1
	0
	7
	18
	1
	12
	2
	18
	19
	14
	10
	8
	19
	13
	14
	12
	19
	2
	18
	6
	11
	15
	2
	4
	1
	18
	10
	8
	19
	14
	9
	10
	17
	13
	6
	7
	17
	0
	14
	6
	3
	0
	4
	12
	1
	7
	4
	0
	3
	12
	7
	6
	17
	9
	2
	6
	1
	0
	9
	2
	11
	4
	12
	18
	15
	3
	13
	15
	18
	1
	2
	4
	12
	3
	7
	6
	8
	3
	12
	7
	6
	11
	8
	2
	6
	11
	18
	12
	16
	19
	14
	4
	15
	11
	16
	6
	18
	12
	3
	7
	12
	4
	17
	14
	9
	10
	19
	16
	6
	13
	19
	12
	8
	7
	3
	6
	15
	16
	9
	19
	14
	10
	4
	17
